p tdp 20 43
1 2
1 3
1 10
1 12
1 14
2 4
2 8
2 12
2 13
3 4
3 12
3 17
4 6
4 10
4 12
4 18
5 8
5 9
5 14
6 7
6 13
6 14
6 15
7 17
7 19
8 14
8 16
9 14
9 16
9 17
9 18
10 14
10 16
10 17
12 15
12 19
13 16
14 18
15 17
15 19
16 17
17 20
18 19
